Version identifier: 22.1.1.0 | 2022-11-28 | 9160aff4d
CPXPARAM_ClockType                               1
CPXPARAM_Read_DataCheck                          1
CPXPARAM_Threads                                 1
CPXPARAM_TimeLimit                               7200
CPXPARAM_MIP_Tolerances_AbsMIPGap                0
CPXPARAM_MIP_Tolerances_MIPGap                   0
CPXPARAM_MIP_Tolerances_Integrality              0
Tried aggregator 2 times.
MIP Presolve eliminated 494 rows and 0 columns.
MIP Presolve modified 790 coefficients.
Aggregator did 300 substitutions.
Reduced MIP has 1046 rows, 750 columns, and 2832 nonzeros.
Reduced MIP has 750 binaries, 0 generals, 0 SOSs, and 0 indicators.
Presolve time = 0.01 sec. (4.51 ticks)
Found incumbent of value 76.000000 after 0.01 sec. (8.85 ticks)
Probing time = 0.01 sec. (1.35 ticks)
Tried aggregator 1 time.
Detecting symmetries...
MIP Presolve eliminated 100 rows and 0 columns.
Reduced MIP has 946 rows, 750 columns, and 2532 nonzeros.
Reduced MIP has 750 binaries, 0 generals, 0 SOSs, and 0 indicators.
Presolve time = 0.00 sec. (3.04 ticks)
Probing time = 0.00 sec. (1.21 ticks)
Clique table members: 1971.
MIP emphasis: balance optimality and feasibility.
MIP search method: dynamic search.
Parallel mode: none, using 1 thread.
Root relaxation solution time = 0.02 sec. (12.58 ticks)

        Nodes                                         Cuts/
   Node  Left     Objective  IInf  Best Integer    Best Bound    ItCnt     Gap

*     0+    0                           76.0000      150.0000            97.37%
      0     0      100.0000   346       76.0000      100.0000      493   31.58%
*     0+    0                           94.0000      100.0000             6.38%
*     0+    0                          100.0000      100.0000             0.00%
      0     0        cutoff            100.0000      100.0000      493    0.00%
Elapsed time = 0.11 sec. (72.57 ticks, tree = 0.01 MB, solutions = 3)

Root node processing (before b&c):
  Real time             =    0.11 sec. (72.62 ticks)
Sequential b&c:
  Real time             =    0.00 sec. (0.00 ticks)
                          ------------
Total (root+branch&cut) =    0.11 sec. (72.62 ticks)
Solution is feasible.

---------------------
@@@ MIP_optimal
>>> Benchmark flat50-9.cnf k 2 OPT 100 TimeCost 0.20322394371032715 TimeSolve 0.11632037162780762 TimeRead 0.0016944408416748047 TimeTrans 0.08520913124084473
